(set-logic QF_LRA)
(declare-fun fluent_started_i0_t0@0 () Bool)
(declare-fun fluent_started_i0_t1@0 () Bool)
(declare-fun fluent_started_i0_t2@0 () Bool)
(declare-fun fluent_started_i0_t3@0 () Bool)
(declare-fun fluent_counter_t0@1 () Real)
(declare-fun fluent_ready_i0_t0@0 () Bool)
(declare-fun fluent_ready_i0_t1@0 () Bool)
(declare-fun fluent_ready_i0_t2@0 () Bool)
(declare-fun fluent_ready_i0_t3@0 () Bool)
(declare-fun fluent_counter_t1@1 () Real)
(declare-fun fluent_busy_@0 () Bool)
(declare-fun fluent_counter_t2@1 () Real)
(declare-fun fluent_treated_i0_t0@0 () Bool)
(declare-fun fluent_treated_i0_t1@0 () Bool)
(declare-fun fluent_treated_i0_t2@0 () Bool)
(declare-fun fluent_treated_i0_t3@0 () Bool)
(declare-fun fluent_counter_t3@1 () Real)
(declare-fun fluent_busy_@1 () Bool)
(declare-fun fluent_started_i0_t0@1 () Bool)
(declare-fun fluent_started_i0_t1@1 () Bool)
(declare-fun fluent_counter_t0@0 () Real)
(declare-fun fluent_started_i0_t2@1 () Bool)
(declare-fun fluent_started_i0_t3@1 () Bool)
(declare-fun fluent_counter_t1@0 () Real)
(declare-fun fluent_counter_t2@0 () Real)
(declare-fun fluent_counter_t3@0 () Real)
(declare-fun fluent_treated_i0_t0@1 () Bool)
(declare-fun fluent_treated_i0_t1@1 () Bool)
(declare-fun fluent_treated_i0_t2@1 () Bool)
(declare-fun fluent_treated_i0_t3@1 () Bool)
(declare-fun dur_make_treatment@1 () Real)
(declare-fun t@1 () Real)
(declare-fun fluent_ready_i0_t0@1 () Bool)
(declare-fun fluent_ready_i0_t1@1 () Bool)
(declare-fun fluent_ready_i0_t2@1 () Bool)
(declare-fun parameter_make_treatment_t@1 () Real)
(declare-fun fluent_ready_i0_t3@1 () Bool)
(declare-fun act_make_treatment@1 () Bool)
(declare-fun parameter_make_treatment_i@1 () Real)
(declare-fun parameter_make_treatment_next@1 () Real)
(assert (let ((.def_0 (= parameter_make_treatment_next@1 4.0))) (let ((.def_1 (= parameter_make_treatment_next@1 3.0))) (let ((.def_2 (= parameter_make_treatment_next@1 2.0))) (let ((.def_3 (= parameter_make_treatment_next@1 1.0))) (let ((.def_4 (or .def_3 .def_2 .def_1 .def_0))) (let ((.def_5 (<= fluent_counter_t3@1 31.0))) (let ((.def_6 (<= 0.0 fluent_counter_t3@1))) (let ((.def_7 (<= fluent_counter_t2@1 31.0))) (let ((.def_8 (<= 0.0 fluent_counter_t2@1))) (let ((.def_9 (<= fluent_counter_t1@1 31.0))) (let ((.def_10 (<= 0.0 fluent_counter_t1@1))) (let ((.def_11 (<= fluent_counter_t0@1 31.0))) (let ((.def_12 (<= 0.0 fluent_counter_t0@1))) (let ((.def_13 (= parameter_make_treatment_i@1 0.0))) (let ((.def_14 (= parameter_make_treatment_t@1 4.0))) (let ((.def_15 (= parameter_make_treatment_t@1 3.0))) (let ((.def_16 (= parameter_make_treatment_t@1 2.0))) (let ((.def_17 (= parameter_make_treatment_t@1 1.0))) (let ((.def_18 (or .def_17 .def_16 .def_15 .def_14))) (let ((.def_19 (and act_make_treatment@1 true .def_14))) (let ((.def_20 (= fluent_counter_t3@0 fluent_counter_t3@1))) (let ((.def_21 (not .def_20))) (let ((.def_22 (=> .def_21 .def_19))) (let ((.def_23 (and act_make_treatment@1 true .def_15))) (let ((.def_24 (= fluent_counter_t2@0 fluent_counter_t2@1))) (let ((.def_25 (not .def_24))) (let ((.def_26 (=> .def_25 .def_23))) (let ((.def_27 (and act_make_treatment@1 true .def_16))) (let ((.def_28 (= fluent_counter_t1@0 fluent_counter_t1@1))) (let ((.def_29 (not .def_28))) (let ((.def_30 (=> .def_29 .def_27))) (let ((.def_31 (and act_make_treatment@1 true .def_17))) (let ((.def_32 (= fluent_counter_t0@0 fluent_counter_t0@1))) (let ((.def_33 (not .def_32))) (let ((.def_34 (=> .def_33 .def_31))) (let ((.def_35 (+ t@1 10.0))) (let ((.def_36 (= t@1 .def_35))) (let ((.def_37 (and act_make_treatment@1 true .def_36 .def_13 .def_0))) (let ((.def_38 (= fluent_ready_i0_t3@0 fluent_ready_i0_t3@1))) (let ((.def_39 (not .def_38))) (let ((.def_40 (=> .def_39 .def_37))) (let ((.def_41 (and act_make_treatment@1 true .def_36 .def_13 .def_1))) (let ((.def_42 (= fluent_ready_i0_t2@0 fluent_ready_i0_t2@1))) (let ((.def_43 (not .def_42))) (let ((.def_44 (=> .def_43 .def_41))) (let ((.def_45 (and act_make_treatment@1 true .def_36 .def_13 .def_2))) (let ((.def_46 (= fluent_ready_i0_t1@0 fluent_ready_i0_t1@1))) (let ((.def_47 (not .def_46))) (let ((.def_48 (=> .def_47 .def_45))) (let ((.def_49 (and act_make_treatment@1 true .def_36 .def_13 .def_3))) (let ((.def_50 (= fluent_ready_i0_t0@0 fluent_ready_i0_t0@1))) (let ((.def_51 (not .def_50))) (let ((.def_52 (=> .def_51 .def_49))) (let ((.def_53 (and act_make_treatment@1 true .def_13 .def_14))) (let ((.def_54 (= fluent_started_i0_t3@0 fluent_started_i0_t3@1))) (let ((.def_55 (not .def_54))) (let ((.def_56 (=> .def_55 .def_53))) (let ((.def_57 (and act_make_treatment@1 true .def_13 .def_15))) (let ((.def_58 (= fluent_started_i0_t2@0 fluent_started_i0_t2@1))) (let ((.def_59 (not .def_58))) (let ((.def_60 (=> .def_59 .def_57))) (let ((.def_61 (and act_make_treatment@1 true .def_13 .def_16))) (let ((.def_62 (= fluent_started_i0_t1@0 fluent_started_i0_t1@1))) (let ((.def_63 (not .def_62))) (let ((.def_64 (=> .def_63 .def_61))) (let ((.def_65 (and act_make_treatment@1 true .def_13 .def_17))) (let ((.def_66 (= fluent_started_i0_t0@0 fluent_started_i0_t0@1))) (let ((.def_67 (not .def_66))) (let ((.def_68 (=> .def_67 .def_65))) (let ((.def_69 (+ t@1 4.0))) (let ((.def_70 (= t@1 .def_69))) (let ((.def_71 (and act_make_treatment@1 true .def_70 .def_13 .def_14))) (let ((.def_72 (= fluent_treated_i0_t3@0 fluent_treated_i0_t3@1))) (let ((.def_73 (not .def_72))) (let ((.def_74 (=> .def_73 .def_71))) (let ((.def_75 (and act_make_treatment@1 true .def_70 .def_13 .def_15))) (let ((.def_76 (= fluent_treated_i0_t2@0 fluent_treated_i0_t2@1))) (let ((.def_77 (not .def_76))) (let ((.def_78 (=> .def_77 .def_75))) (let ((.def_79 (and act_make_treatment@1 true .def_70 .def_13 .def_16))) (let ((.def_80 (= fluent_treated_i0_t1@0 fluent_treated_i0_t1@1))) (let ((.def_81 (not .def_80))) (let ((.def_82 (=> .def_81 .def_79))) (let ((.def_83 (and act_make_treatment@1 true .def_70 .def_13 .def_17))) (let ((.def_84 (= fluent_treated_i0_t0@0 fluent_treated_i0_t0@1))) (let ((.def_85 (not .def_84))) (let ((.def_86 (=> .def_85 .def_83))) (let ((.def_87 (and act_make_treatment@1 true .def_70))) (let ((.def_88 (and act_make_treatment@1 true))) (let ((.def_89 (and .def_88 .def_87))) (let ((.def_90 (not .def_89))) (let ((.def_91 (or .def_88 .def_87))) (let ((.def_92 (= fluent_busy_@0 fluent_busy_@1))) (let ((.def_93 (not .def_92))) (let ((.def_94 (=> .def_93 .def_91))) (let ((.def_95 (and .def_94 .def_90 .def_86 .def_82 .def_78 .def_74 .def_68 .def_64 .def_60 .def_56 .def_52 .def_48 .def_44 .def_40 .def_34 .def_30 .def_26 .def_22))) (let ((.def_96 (<= 0.0 t@1))) (let ((.def_97 (and .def_13 .def_2))) (let ((.def_98 (ite .def_97 fluent_ready_i0_t1@1 fluent_ready_i0_t0@1))) (let ((.def_99 (and .def_13 .def_1))) (let ((.def_100 (ite .def_99 fluent_ready_i0_t2@1 .def_98))) (let ((.def_101 (and .def_13 .def_0))) (let ((.def_102 (ite .def_101 fluent_ready_i0_t3@1 .def_100))) (let ((.def_103 (= .def_102 true))) (let ((.def_104 (=> true .def_103))) (let ((.def_105 (and .def_36 .def_104))) (let ((.def_106 (= fluent_busy_@1 false))) (let ((.def_107 (=> true .def_106))) (let ((.def_108 (and .def_13 .def_16))) (let ((.def_109 (ite .def_108 fluent_treated_i0_t1@1 fluent_treated_i0_t0@1))) (let ((.def_110 (and .def_13 .def_15))) (let ((.def_111 (ite .def_110 fluent_treated_i0_t2@1 .def_109))) (let ((.def_112 (and .def_13 .def_14))) (let ((.def_113 (ite .def_112 fluent_treated_i0_t3@1 .def_111))) (let ((.def_114 (= .def_113 true))) (let ((.def_115 (=> true .def_114))) (let ((.def_116 (and .def_70 .def_115 .def_107))) (let ((.def_117 (ite .def_108 fluent_started_i0_t1@1 fluent_started_i0_t0@1))) (let ((.def_118 (ite .def_110 fluent_started_i0_t2@1 .def_117))) (let ((.def_119 (ite .def_112 fluent_started_i0_t3@1 .def_118))) (let ((.def_120 (= .def_119 true))) (let ((.def_121 (=> true .def_120))) (let ((.def_122 (= fluent_busy_@1 true))) (let ((.def_123 (=> true .def_122))) (let ((.def_124 (ite .def_16 fluent_counter_t1@0 fluent_counter_t0@0))) (let ((.def_125 (ite .def_15 fluent_counter_t2@0 .def_124))) (let ((.def_126 (ite .def_14 fluent_counter_t3@0 .def_125))) (let ((.def_127 (+ .def_126 1.0))) (let ((.def_128 (ite .def_16 fluent_counter_t1@1 fluent_counter_t0@1))) (let ((.def_129 (ite .def_15 fluent_counter_t2@1 .def_128))) (let ((.def_130 (ite .def_14 fluent_counter_t3@1 .def_129))) (let ((.def_131 (= .def_130 .def_127))) (let ((.def_132 (=> true .def_131))) (let ((.def_133 (= t@1 t@1))) (let ((.def_134 (and .def_133 .def_132 .def_123 .def_121))) (let ((.def_135 (ite .def_97 fluent_started_i0_t1@0 fluent_started_i0_t0@0))) (let ((.def_136 (ite .def_99 fluent_started_i0_t2@0 .def_135))) (let ((.def_137 (ite .def_101 fluent_started_i0_t3@0 .def_136))) (let ((.def_138 (+ t@1 dur_make_treatment@1))) (let ((.def_139 (<= .def_138 t@1))) (let ((.def_140 (< (- 1.0) .def_138))) (let ((.def_141 (and .def_140 .def_139))) (let ((.def_142 (=> .def_141 .def_137))) (let ((.def_143 (ite .def_108 fluent_ready_i0_t1@0 fluent_ready_i0_t0@0))) (let ((.def_144 (ite .def_110 fluent_ready_i0_t2@0 .def_143))) (let ((.def_145 (ite .def_112 fluent_ready_i0_t3@0 .def_144))) (let ((.def_146 (ite .def_108 fluent_started_i0_t1@0 fluent_started_i0_t0@0))) (let ((.def_147 (ite .def_110 fluent_started_i0_t2@0 .def_146))) (let ((.def_148 (ite .def_112 fluent_started_i0_t3@0 .def_147))) (let ((.def_149 (not .def_148))) (let ((.def_150 (ite .def_108 fluent_treated_i0_t1@0 fluent_treated_i0_t0@0))) (let ((.def_151 (ite .def_110 fluent_treated_i0_t2@0 .def_150))) (let ((.def_152 (ite .def_112 fluent_treated_i0_t3@0 .def_151))) (let ((.def_153 (not .def_152))) (let ((.def_154 (not fluent_busy_@0))) (let ((.def_155 (and .def_16 .def_3))) (let ((.def_156 (ite .def_155 false false))) (let ((.def_157 (and .def_15 .def_3))) (let ((.def_158 (ite .def_157 false .def_156))) (let ((.def_159 (and .def_14 .def_3))) (let ((.def_160 (ite .def_159 false .def_158))) (let ((.def_161 (and .def_17 .def_2))) (let ((.def_162 (ite .def_161 true .def_160))) (let ((.def_163 (and .def_16 .def_2))) (let ((.def_164 (ite .def_163 false .def_162))) (let ((.def_165 (and .def_15 .def_2))) (let ((.def_166 (ite .def_165 false .def_164))) (let ((.def_167 (and .def_14 .def_2))) (let ((.def_168 (ite .def_167 false .def_166))) (let ((.def_169 (and .def_17 .def_1))) (let ((.def_170 (ite .def_169 false .def_168))) (let ((.def_171 (and .def_16 .def_1))) (let ((.def_172 (ite .def_171 true .def_170))) (let ((.def_173 (and .def_15 .def_1))) (let ((.def_174 (ite .def_173 false .def_172))) (let ((.def_175 (and .def_14 .def_1))) (let ((.def_176 (ite .def_175 false .def_174))) (let ((.def_177 (and .def_17 .def_0))) (let ((.def_178 (ite .def_177 false .def_176))) (let ((.def_179 (and .def_16 .def_0))) (let ((.def_180 (ite .def_179 false .def_178))) (let ((.def_181 (and .def_15 .def_0))) (let ((.def_182 (ite .def_181 true .def_180))) (let ((.def_183 (and .def_14 .def_0))) (let ((.def_184 (ite .def_183 false .def_182))) (let ((.def_185 (= 0.0 .def_126))) (let ((.def_186 (and .def_185 .def_184 .def_154 .def_153 .def_149 .def_145))) (let ((.def_187 (<= t@1 t@1))) (let ((.def_188 (< (- 1.0) t@1))) (let ((.def_189 (and .def_188 .def_187))) (let ((.def_190 (=> .def_189 .def_186))) (let ((.def_191 (<= dur_make_treatment@1 15.0))) (let ((.def_192 (<= 15.0 dur_make_treatment@1))) (let ((.def_193 (and .def_192 .def_191))) (let ((.def_194 (and .def_193 .def_139 .def_190 .def_142 .def_134 .def_116 .def_105))) (let ((.def_195 (=> act_make_treatment@1 .def_194))) (let ((.def_196 (<= fluent_counter_t3@0 31.0))) (let ((.def_197 (<= 0.0 fluent_counter_t3@0))) (let ((.def_198 (<= fluent_counter_t2@0 31.0))) (let ((.def_199 (<= 0.0 fluent_counter_t2@0))) (let ((.def_200 (<= fluent_counter_t1@0 31.0))) (let ((.def_201 (<= 0.0 fluent_counter_t1@0))) (let ((.def_202 (<= fluent_counter_t0@0 31.0))) (let ((.def_203 (<= 0.0 fluent_counter_t0@0))) (let ((.def_204 (= fluent_counter_t3@0 0.0))) (let ((.def_205 (= fluent_counter_t2@0 0.0))) (let ((.def_206 (= fluent_counter_t1@0 0.0))) (let ((.def_207 (= fluent_counter_t0@0 0.0))) (let ((.def_208 (= false false))) (let ((.def_209 (= fluent_ready_i0_t3@0 false))) (let ((.def_210 (= fluent_ready_i0_t2@0 false))) (let ((.def_211 (= fluent_ready_i0_t1@0 false))) (let ((.def_212 (= fluent_started_i0_t2@0 false))) (let ((.def_213 (= fluent_started_i0_t1@0 false))) (let ((.def_214 (= fluent_started_i0_t0@0 false))) (let ((.def_215 (= fluent_treated_i0_t3@0 false))) (let ((.def_216 (= fluent_treated_i0_t2@0 false))) (let ((.def_217 (= fluent_treated_i0_t1@0 false))) (let ((.def_218 (= fluent_treated_i0_t0@0 false))) (let ((.def_219 (= fluent_busy_@0 false))) (let ((.def_220 (= fluent_ready_i0_t0@0 true))) (let ((.def_221 (= fluent_started_i0_t3@0 true))) (let ((.def_222 (= true true))) (let ((.def_223 (= 0.0 0.0))) (let ((.def_224 (and .def_223 .def_222 .def_222 .def_222 .def_221 .def_220 .def_219 .def_218 .def_217 .def_216 .def_215 .def_214 .def_213 .def_212 .def_211 .def_210 .def_209 .def_208 .def_208 .def_208 .def_208 .def_208 .def_208 .def_208 .def_208 .def_208 .def_208 .def_208 .def_208 .def_208 .def_207 .def_206 .def_205 .def_204 .def_203 .def_202 .def_201 .def_200 .def_199 .def_198 .def_197 .def_196))) (let ((.def_225 (and .def_224 .def_195 .def_96 true true .def_95 .def_18 .def_13 .def_12 .def_11 .def_10 .def_9 .def_8 .def_7 .def_6 .def_5 .def_4 true))) .def_225)))))))))))))))))))))))))))))))))))))))))))))))))))))))))))))))))))))))))))))))))))))))))))))))))))))))))))))))))))))))))))))))))))))))))))))))))))))))))))))))))))))))))))))))))))))))))))))))))))))))))))))))))))))))))))))))))))
(check-sat)
